
(set-logic BV)

(define-fun shr1 ((x (BitVec 64))) (BitVec 64) (bvlshr x #x0000000000000001))
(define-fun shr4 ((x (BitVec 64))) (BitVec 64) (bvlshr x #x0000000000000004))
(define-fun shr16 ((x (BitVec 64))) (BitVec 64) (bvlshr x #x0000000000000010))
(define-fun shl1 ((x (BitVec 64))) (BitVec 64) (bvshl x #x0000000000000001))
(define-fun if0 ((x (BitVec 64)) (y (BitVec 64)) (z (BitVec 64))) (BitVec 64) (ite (= x #x0000000000000001) y z))
(define-fun func23  ((A (BitVec 64)) (B (BitVec 64)) (C (BitVec 64)) (D (BitVec 64)) ) (BitVec 64) (bvand (bvlshr (bvlshr C  D ) B ) A ))
(define-fun func24  ((A (BitVec 64)) (B (BitVec 64)) (C (BitVec 64)) ) (BitVec 64) (bvand (bvlshr B  C ) A ))
(define-fun func25  ((A (BitVec 64)) (B (BitVec 64)) ) (BitVec 64) (bvand (bvlshr B  #x0000000000000001 ) A ))
(define-fun func26  ((A (BitVec 64)) (B (BitVec 64)) ) (BitVec 64) (bvand (bvlshr B  #x0000000000000010 ) A ))
(define-fun func27  ((A (BitVec 64)) (B (BitVec 64)) ) (BitVec 64) (bvand (bvlshr B  #x0000000000000004 ) A ))
(define-fun func28  ((A (BitVec 64)) (B (BitVec 64)) ) (BitVec 64) (bvand (bvlshr A  B ) #x0000000000000001 ))
(define-fun func29  ((A (BitVec 64)) ) (BitVec 64) (bvand A  #x0000000000000001 ))
(define-fun func30  ((A (BitVec 64)) (B (BitVec 64)) (C (BitVec 64)) (D (BitVec 64)) ) (BitVec 64) (bvlshr (bvlshr (bvlshr C  D ) B ) A ))
(define-fun func31  ((A (BitVec 64)) (B (BitVec 64)) (C (BitVec 64)) ) (BitVec 64) (bvlshr (bvlshr (bvlshr B  C ) A ) #x0000000000000004 ))
(define-fun func32  ((A (BitVec 64)) (B (BitVec 64)) (C (BitVec 64)) ) (BitVec 64) (bvlshr (bvlshr (bvlshr C  #x0000000000000010 ) B ) A ))
(define-fun func33  ((A (BitVec 64)) (B (BitVec 64)) (C (BitVec 64)) ) (BitVec 64) (bvlshr (bvlshr (bvlshr B  C ) #x0000000000000004 ) A ))
(define-fun func34  ((A (BitVec 64)) (B (BitVec 64)) (C (BitVec 64)) ) (BitVec 64) (bvlshr (bvlshr B  C ) A ))
(define-fun func35  ((A (BitVec 64)) (B (BitVec 64)) ) (BitVec 64) (bvlshr (bvlshr B  #x0000000000000010 ) A ))
(define-fun func36  ((A (BitVec 64)) (B (BitVec 64)) ) (BitVec 64) (bvlshr (bvlshr B  #x0000000000000004 ) A ))
(define-fun func37  ((A (BitVec 64)) (B (BitVec 64)) ) (BitVec 64) (bvlshr (bvlshr B  #x0000000000000001 ) A ))
(define-fun func38  ((A (BitVec 64)) (B (BitVec 64)) ) (BitVec 64) (bvlshr (bvlshr A  B ) #x0000000000000001 ))
(define-fun func39  ((A (BitVec 64)) (B (BitVec 64)) ) (BitVec 64) (bvlshr (bvlshr A  B ) #x0000000000000004 ))
(define-fun func40  ((A (BitVec 64)) (B (BitVec 64)) ) (BitVec 64) (bvlshr A  B ))
(define-fun func41  ((A (BitVec 64)) (B (BitVec 64)) (C (BitVec 64)) ) (BitVec 64) (bvlshr (bvshl B  C ) A ))
(define-fun func42  ((A (BitVec 64)) (B (BitVec 64)) ) (BitVec 64) (bvlshr (bvshl B  #x0000000000000001 ) A ))
(define-fun func43  ((A (BitVec 64)) (B (BitVec 64)) (C (BitVec 64)) ) (BitVec 64) (bvlshr (bvadd B  C ) A ))
(define-fun func44  ((A (BitVec 64)) (B (BitVec 64)) ) (BitVec 64) (bvlshr (bvnot B ) A ))
(define-fun func45  ((A (BitVec 64)) ) (BitVec 64) (bvlshr (bvnot A ) #x0000000000000010 ))
(define-fun func46  ((A (BitVec 64)) (B (BitVec 64)) (C (BitVec 64)) ) (BitVec 64) (bvor (bvlshr B  C ) A ))
(define-fun func47  ((A (BitVec 64)) ) (BitVec 64) (bvor A  #x0000000000000001 ))
(define-fun func48  ((A (BitVec 64)) (B (BitVec 64)) (C (BitVec 64)) ) (BitVec 64) (bvshl (bvlshr B  C ) A ))
(define-fun func49  ((A (BitVec 64)) (B (BitVec 64)) ) (BitVec 64) (bvshl (bvlshr B  #x0000000000000001 ) A ))
(define-fun func50  ((A (BitVec 64)) (B (BitVec 64)) ) (BitVec 64) (bvshl (bvlshr A  B ) #x0000000000000001 ))
(define-fun func52  ((A (BitVec 64)) (B (BitVec 64)) (C (BitVec 64)) ) (BitVec 64) (bvadd (bvlshr B  C ) A ))
(define-fun func53  ((A (BitVec 64)) ) (BitVec 64) (bvadd A  #x0000000000000001 ))
(define-fun func54  ((A (BitVec 64)) (B (BitVec 64)) (C (BitVec 64)) ) (BitVec 64) (bvadd (bvshl B  C ) A ))
(define-fun func55  ((A (BitVec 64)) (B (BitVec 64)) ) (BitVec 64) (bvadd (bvshl B  #x0000000000000001 ) A ))
(define-fun func56  ((A (BitVec 64)) ) (BitVec 64) (bvnot (bvshl A  #x0000000000000001 )))
(synth-fun f ( (x (BitVec 64))) (BitVec 64)
(
(Start (BitVec 64) (
   #x0000000000000000
   #x0000000000000001
   x
   (func29 Start)
   (func31 Start Start Start)
   (func33 Start Start Start)
   (func34 Start Start Start)
   (func35 Start Start)
   (func40 Start Start)
   (func41 Start Start Start)
   (func43 Start Start Start)
   (func44 Start Start)
   (func45 Start)
   (func47 Start)
   (func48 Start Start Start)
   (func50 Start Start)
   (func52 Start Start Start)
   (func53 Start)
   (func55 Start Start)
   (func56 Start)
   (bvnot Start)
   (shl1 Start)
   (shr1 Start)
   (shr4 Start)
   (shr16 Start)
   (bvand Start Start)
   (bvor Start Start)
   (bvxor Start Start)
   (bvadd Start Start)
   (if0 Start Start Start)
))
))
(constraint (= (f #xb7d57ad7cb4d44e6) #x0000000000000000))
(constraint (= (f #xa31b67704864219c) #x0000000000000000))
(constraint (= (f #xef3104bcd91af118) #x0000000000000000))
(constraint (= (f #xea223bdd8320f618) #x0000000000000000))
(constraint (= (f #x636f819046969880) #x0000000000000000))
(constraint (= (f #xffff0000ffff0002) #xffff0000ffff0002))
(constraint (= (f #x8000000000000002) #x0000000000000000))
(constraint (= (f #x0000000000000002) #x0000000000000000))
(constraint (= (f #x48aad83ddc03ac8f) #x00000048aad83ddc))
(constraint (= (f #xf8fd05416ebfa945) #x000000f8fd05416e))
(constraint (= (f #x47cdb7597ad6aa8f) #x00000047cdb7597a))
(constraint (= (f #xdef7cd79710ab703) #x000000def7cd7971))
(constraint (= (f #xa791e40f26f59169) #x000000a791e40f26))
(constraint (= (f #x0000000000000001) #x0000000000000000))
(constraint (= (f #x0000000000000003) #x0000000000000000))
(constraint (= (f #x8000000000000003) #x0000000000000000))
(constraint (= (f #x1251384d0bba7055) #x0000001251384d0b))
(constraint (= (f #x04e10df47379109b) #x00000004e10df473))
(constraint (= (f #x005dd8d988fd1a5b) #x000000005dd8d988))
(constraint (= (f #x868ac026fa3670fb) #x000000868ac026fa))
(constraint (= (f #xf04eac3591b66edf) #x000000f04eac3591))
(constraint (= (f #x7e28ba027bf73108) #x0000000000000000))
(constraint (= (f #x201787a78d863236) #x0000000000000000))
(constraint (= (f #xcb27cae28b02c7fd) #x000000cb27cae28b))
(constraint (= (f #xe047f7cf393c8717) #x000000e047f7cf39))
(constraint (= (f #xf2ce2d7b95b864c9) #x000000f2ce2d7b95))
(constraint (= (f #x1755c5b2fa32752e) #x0000000000000000))
(constraint (= (f #x6a9afa38d45a7bbf) #x0000006a9afa38d4))
(constraint (= (f #x9444dc4a6309b720) #x0000000000000000))
(constraint (= (f #x15f747c627297033) #x00000015f747c627))
(constraint (= (f #xf926d8ffb73a990c) #x0000000000000000))
(constraint (= (f #x8000000000000003) #x0000000000000000))
(constraint (= (f #x52a8201616ffffff) #x00000052a8201617))
(constraint (= (f #xffff0000ffff0002) #xffff0000ffff0002))
(constraint (= (f #x54d629ef727984e6) #x0000000000000000))
(constraint (= (f #x0000000000000001) #x0000000000000000))
(check-synth)
